Route #1: 44 5 29 6 19 8 40 50 21 24 36 16
Route #2: 31 53 17 7 33 48 26 35
Route #3: 42 47 52 43 25 13 3 15 28 14
Route #4: 51 37 2 18 27 46 30
Route #5: 39 22 34 10 45 12
Route #6: 32 23 4 54 11
Route #7: 38 20 9 41 49
cost 1304
